138
1000
224
245
309
289
175
13
53
7
28
348
17
411
298
243
362
118
78
463
247
4
363
131
72
293
1
73
247
329
404
420
273
180
103
369
215
326
74
312
233
406
162
214
101
138
72
394
492
371
293
191
452
174
58
483
349
22
31
177
366
19
325
443
303
146
226
187
270
143
284
408
311
359
122
103
69
210
178
72
119
103
100
288
250
95
194
496
399
145
49
227
304
91
146
55
258
28
139
329
303
117
462
19
109
23
416
113
311
112
91
191
449
210
108
403
33
1
277
96
253
451
206
281
6
367
207
126
4
287
477
211
439
177
8
12
344
182
338
491
